param num_prod := 3;
param num_rml := 5;

param profits :=
1 	100
2 	50
3 	25;

param stock :=
1 	10
2 	3
3 	6
4 	9
5 	15;

param req :
	1 	2 	3	:=
1 	4 	3 	1
2 	5 	7 	2
3 	1 	1 	1
4 	0 	3 	4
5 	6 	2 	9;

